\ Model remodel_embed_copy
\ LP format - for model browsing. Use MPS format to capture full model detail.
Maximize
 
Subject To
 PoolQC_link_ord: x_Pool_QC - poolqc_is_Fa - 2 poolqc_is_TA
   - 3 poolqc_is_Gd - 4 poolqc_is_Ex + poolqc_is_No_aplica = 0
Bounds
 poolqc_is_Fa = 0
 poolqc_is_TA = 0
 poolqc_is_Gd = 0
 poolqc_is_Ex = 0
 poolqc_is_No_aplica = 1
Binaries
 poolqc_is_Fa poolqc_is_TA poolqc_is_Gd poolqc_is_Ex poolqc_is_No_aplica
Generals
 x_Pool_QC
End
